NAME: A-n39-k5-C13-V2
TYPE: SoftCluVRP
DIMENSION:  39 
VEHICLES:  2 
GVRP_SETS:  13 
CAPACITY:  100 
EDGE_WEIGHT_TYPE: EUC_2D
NODE_COORD_SECTION 
1 9.000000 35.000000
2 43.000000 19.000000
3 79.000000 35.000000
4 93.000000 7.000000
5 13.000000 35.000000
6 67.000000 13.000000
7 31.000000 77.000000
8 81.000000 7.000000
9 27.000000 49.000000
10 27.000000 35.000000
11 69.000000 23.000000
12 31.000000 51.000000
13 27.000000 27.000000
14 15.000000 83.000000
15 7.000000 35.000000
16 53.000000 25.000000
17 75.000000 13.000000
18 47.000000 49.000000
19 25.000000 33.000000
20 1.000000 23.000000
21 45.000000 11.000000
22 1.000000 47.000000
23 93.000000 15.000000
24 41.000000 9.000000
25 75.000000 55.000000
26 3.000000 1.000000
27 51.000000 67.000000
28 57.000000 91.000000
29 21.000000 97.000000
30 55.000000 13.000000
31 3.000000 71.000000
32 37.000000 19.000000
33 73.000000 21.000000
34 19.000000 19.000000
35 75.000000 73.000000
36 93.000000 49.000000
37 41.000000 87.000000
38 97.000000 73.000000
39 45.000000 29.000000
GVRP_SET_SECTION 
 1 38 -1
 2  26 -1
 3  14  7  29  31 -1
 4  8  4  6  17  23 -1
 5  18  12  27 -1
 6  28  37 -1
 7  22  15 -1
 8  24  2  21  32 -1
 9  3  11  33  36 -1
 10  19  5  9  10  13  34 -1
 11  20 -1
 12  35  25 -1
 13  16  30  39 -1
 DEMAND_SECTION
 1 4 
 2 10 
 3 12 
 4 14 
 5 9 
 6 19 
 7 13 
 8 6 
 9 19 
 10 14 
 11 5 
 12 14 
 13 9 
EOF
